multiobj/instances/uniform/Ter.7.2.0.80.2.in
7 2
0 766 274 345 649 838 958 
766 0 343 397 851 130 809 
274 343 0 523 333 968 703 
345 397 523 0 551 820 151 
649 851 333 551 0 663 210 
838 130 968 820 663 0 189 
958 809 703 151 210 189 0 
0 165 517 392 993 864 895 
165 0 227 154 420 262 457 
517 227 0 949 118 976 77 
392 154 949 0 982 536 345 
993 420 118 982 0 207 342 
864 262 976 536 207 0 406 
895 457 77 345 342 406 0 
0 413 685 533 846 879 874 
413 0 190 144 357 418 281 
685 190 0 932 163 889 52 
533 144 932 0 833 555 365 
846 357 163 833 0 147 391 
879 418 889 555 147 0 230 
874 281 52 365 391 230 0 
