multiobj/solutions/Ter.7.2.0.80.2.out
1 2
3 2 6 5 1 4 0 
8714698 8780670 
